000001100001000000110001011000011011111011101010101111100011000111100000010111100001101010101000001000110011010110011100000110111100101111110110111010011100001101011000001001011100010100000110000000101111100011001000101001011111010010101000100110011011101110011111100111001110110110001000100001010100000101110111000011101001011111001100111010000100110011101101110000100010101111101110110101011010100100100100101010100000101100100110110101001100100011110011000101110101101110111010101101100001110110001011100011001011000101001100001000101011111011011000101111011101111011101010000011101000111101111010010010011110101111101010111110001001011100010001010110011111101101001100111000101011001010100100100011000101011010000100010100110001110111000001010000011000111010100110010001100110100000101000000010000011011011110000101000100000000000000000100000101000010001110010000000100000000011111100100010001011101111101100000000110001010101111011100101100000001100010101